2023/11/29
gurobi is now 11.0.0
previous version was 10.0.3
solving instance knapsack 10 2 exp
Set parameter TokenServer to value "licences.gerad.lan"
Set parameter MIPGap to value 1e-06
Set parameter FuncPieceError to value 1e-06
Set parameter Threads to value 1
Set parameter FuncPieces to value -2
Set parameter TimeLimit to value 3600
Gurobi Optimizer version 12.0.0 build v12.0.0rc1 (linux64 - "AlmaLinux 9.6 (Sage Margay)")

CPU model: Intel(R) Xeon(R) Gold 6258R CPU @ 2.70GHz, instruction set [SSE2|AVX|AVX2|AVX512]
Thread count: 56 physical cores, 56 logical processors, using up to 1 threads

Non-default parameters:
TimeLimit  3600
MIPGap  1e-06
Threads  1
FuncPieces  -2
FuncPieceError  1e-06

Optimize a model with 51 rows, 70 columns and 110 nonzeros
Model fingerprint: 0x005c9952
Model has 20 function constraints treated as nonlinear
  10 EXP, 10 POW
Variable types: 60 continuous, 10 integer (10 binary)
Coefficient statistics:
  Matrix range     [1e-01, 1e+02]
  Objective range  [1e+00, 1e+00]
  Bounds range     [1e+02, 1e+10]
  RHS range        [5e-02, 2e+04]
Warning: Model contains large bounds
         Consider reformulating model or setting NumericFocus parameter
         to avoid numerical issues.
Warning: 0 <= x < 1e-10 in domain of pow(x,a) with a=-1.000.
         Setting lower bound to 1e-10.
Presolve removed 40 rows and 30 columns
Presolve time: 0.03s
Presolved: 101 rows, 41 columns, 210 nonzeros
Presolved model has 10 bilinear constraint(s)
Presolved model has 10 nonlinear constraint(s)

Solving non-convex MINLP

Variable types: 41 continuous, 0 integer (0 binary)
Found heuristic solution: objective -583.0392195

Root relaxation: objective -6.120632e+02, 47 iterations, 0.00 seconds (0.00 work units)

    Nodes    |    Current Node    |     Objective Bounds      |     Work
 Expl Unexpl |  Obj  Depth IntInf | Incumbent    BestBd   Gap | It/Node Time

     0     0 -612.06317    0   16 -583.03922 -612.06317  4.98%     -    0s
     0     0 -609.11664    0   17 -583.03922 -609.11664  4.47%     -    0s
     0     0 -608.57817    0   17 -583.03922 -608.57817  4.38%     -    0s
     0     0 -608.01373    0   17 -583.03922 -608.01373  4.28%     -    0s
     0     0 -607.83549    0   17 -583.03922 -607.83549  4.25%     -    0s
     0     0 -607.75408    0   17 -583.03922 -607.75408  4.24%     -    0s
     0     0 -607.75162    0   17 -583.03922 -607.75162  4.24%     -    0s
     0     0 -607.74341    0   17 -583.03922 -607.74341  4.24%     -    0s
     0     0 -607.74187    0   17 -583.03922 -607.74187  4.24%     -    0s
     0     0 -607.73829    0   17 -583.03922 -607.73829  4.24%     -    0s
     0     0 -607.73809    0   17 -583.03922 -607.73809  4.24%     -    0s
     0     0 -607.73572    0   17 -583.03922 -607.73572  4.24%     -    0s
     0     0 -607.73500    0   17 -583.03922 -607.73500  4.24%     -    0s
     0     0 -607.73041    0   17 -583.03922 -607.73041  4.23%     -    0s
     0     0 -607.66385    0   17 -583.03922 -607.66385  4.22%     -    0s
     0     2 -607.66385    0   17 -583.03922 -607.66385  4.22%     -    0s
H  177    85                    -583.0394819 -597.06861  2.41%   5.4    0s
H  177    85                    -583.0415830 -597.06861  2.41%   5.4    0s
*13514   922              52    -583.0423224 -583.23992  0.03%   5.1    2s
*18487   592              53    -583.0427297 -583.07224  0.01%   5.2    3s
*19185   496              49    -583.0451284 -583.06834  0.00%   5.2    3s

Explored 21360 nodes (114015 simplex iterations) in 4.33 seconds (1.53 work units)
Thread count was 1 (of 56 available processors)

Solution count 6: -583.045 -583.043 -583.042 ... -583.039

Optimal solution found (tolerance 1.00e-06)
Best objective -5.830451284479e+02, best bound -5.830457093781e+02, gap 0.0001%

User-callback calls 43315, time in user-callback 0.01 sec
primal_bound = -583.0451284479439, dual_bound = 0.0, gap = 100.0, time = 4.63
